language Essence 1.3

letting bot_end be [49, 1549, 1494, 1476, 1479, 77, 54, 1531, 7, 48, 47, 1503, 1397; int(1..13)]
letting bot_start be [1454, 101, 25, 74, 24, 1523, 1548, 22, 1524, 1501, 1478, 46, 0; int(1..13)]
letting buffer_col be 2
letting buffer_row be 2
letting corridor_size be 1
letting n_shelves_col be 7
letting n_shelves_row be 29
letting shelf_col_size be 2
letting shelf_row_size be 1
